p edge 274 2843
e 1 72
e 2 73
e 3 74
e 4 75
e 5 76
e 6 77
e 7 78
e 8 79
e 9 80
e 10 81
e 11 82
e 12 83
e 13 84
e 14 85
e 15 86
e 16 87
e 17 88
e 18 89
e 19 90
e 20 91
e 21 92
e 22 93
e 23 94
e 24 95
e 25 96
e 26 97
e 27 98
e 28 99
e 29 100
e 30 101
e 31 102
e 32 103
e 33 104
e 34 105
e 35 106
e 36 107
e 37 108
e 38 109
e 39 110
e 40 111
e 41 112
e 42 113
e 43 114
e 44 115
e 45 116
e 46 117
e 47 118
e 48 119
e 49 120
e 50 121
e 51 122
e 52 123
e 53 124
e 54 125
e 55 126
e 56 127
e 57 128
e 58 129
e 59 130
e 60 131
e 61 132
e 62 133
e 63 134
e 64 135
e 65 136
e 66 137
e 67 138
e 68 139
e 69 140
e 70 141
e 71 142
e 72 143
e 72 147
e 72 151
e 72 152
e 72 153
e 72 155
e 72 156
e 72 157
e 72 159
e 72 161
e 72 163
e 72 166
e 72 168
e 72 171
e 72 174
e 72 177
e 72 180
e 72 181
e 72 184
e 72 185
e 72 193
e 72 194
e 72 206
e 72 208
e 72 212
e 72 213
e 72 216
e 72 219
e 72 221
e 72 224
e 72 226
e 72 227
e 72 228
e 72 234
e 72 236
e 72 241
e 72 243
e 72 244
e 72 250
e 72 252
e 72 255
e 72 257
e 72 264
e 72 265
e 72 267
e 72 270
e 72 272
e 73 146
e 73 149
e 73 151
e 73 154
e 73 157
e 73 159
e 73 160
e 73 162
e 73 163
e 73 164
e 73 166
e 73 177
e 73 178
e 73 179
e 73 180
e 73 181
e 73 183
e 73 185
e 73 187
e 73 190
e 73 196
e 73 197
e 73 199
e 73 202
e 73 204
e 73 205
e 73 210
e 73 211
e 73 212
e 73 213
e 73 215
e 73 216
e 73 221
e 73 222
e 73 228
e 73 232
e 73 235
e 73 236
e 73 241
e 73 249
e 73 253
e 73 254
e 73 256
e 73 269
e 73 271
e 73 272
e 73 273
e 73 274
e 74 143
e 74 144
e 74 148
e 74 153
e 74 154
e 74 155
e 74 158
e 74 162
e 74 165
e 74 166
e 74 168
e 74 169
e 74 170
e 74 177
e 74 180
e 74 187
e 74 188
e 74 189
e 74 191
e 74 192
e 74 195
e 74 196
e 74 197
e 74 198
e 74 199
e 74 203
e 74 205
e 74 208
e 74 209
e 74 213
e 74 217
e 74 218
e 74 222
e 74 228
e 74 232
e 74 235
e 74 238
e 74 243
e 74 250
e 74 254
e 74 255
e 74 256
e 74 257
e 74 259
e 74 261
e 74 262
e 74 263
e 74 265
e 74 268
e 74 269
e 74 271
e 74 273
e 75 155
e 75 159
e 75 163
e 75 165
e 75 167
e 75 168
e 75 175
e 75 176
e 75 177
e 75 181
e 75 182
e 75 190
e 75 192
e 75 193
e 75 195
e 75 197
e 75 202
e 75 208
e 75 211
e 75 215
e 75 220
e 75 223
e 75 226
e 75 232
e 75 233
e 75 235
e 75 239
e 75 248
e 75 250
e 75 251
e 75 252
e 75 260
e 75 261
e 75 264
e 75 271
e 76 143
e 76 146
e 76 148
e 76 150
e 76 157
e 76 160
e 76 162
e 76 167
e 76 168
e 76 170
e 76 171
e 76 176
e 76 178
e 76 179
e 76 181
e 76 187
e 76 192
e 76 194
e 76 196
e 76 201
e 76 205
e 76 206
e 76 207
e 76 208
e 76 212
e 76 227
e 76 229
e 76 235
e 76 236
e 76 238
e 76 241
e 76 245
e 76 246
e 76 247
e 76 249
e 76 252
e 76 257
e 76 262
e 76 265
e 76 266
e 76 267
e 76 268
e 76 271
e 76 272
e 76 274
e 77 143
e 77 145
e 77 147
e 77 151
e 77 159
e 77 164
e 77 168
e 77 170
e 77 171
e 77 172
e 77 174
e 77 176
e 77 177
e 77 178
e 77 179
e 77 182
e 77 187
e 77 189
e 77 190
e 77 191
e 77 202
e 77 210
e 77 213
e 77 217
e 77 227
e 77 230
e 77 231
e 77 234
e 77 239
e 77 243
e 77 244
e 77 255
e 77 260
e 77 273
e 78 146
e 78 148
e 78 151
e 78 155
e 78 157
e 78 159
e 78 161
e 78 169
e 78 170
e 78 171
e 78 172
e 78 174
e 78 175
e 78 178
e 78 179
e 78 182
e 78 184
e 78 191
e 78 197
e 78 198
e 78 200
e 78 202
e 78 203
e 78 207
e 78 210
e 78 212
e 78 218
e 78 221
e 78 224
e 78 229
e 78 232
e 78 233
e 78 235
e 78 240
e 78 249
e 78 252
e 78 255
e 78 256
e 78 263
e 78 266
e 78 269
e 78 270
e 78 273
e 79 143
e 79 144
e 79 146
e 79 148
e 79 149
e 79 152
e 79 154
e 79 156
e 79 157
e 79 158
e 79 162
e 79 165
e 79 166
e 79 172
e 79 173
e 79 176
e 79 178
e 79 181
e 79 183
e 79 184
e 79 186
e 79 188
e 79 194
e 79 197
e 79 204
e 79 210
e 79 212
e 79 214
e 79 217
e 79 220
e 79 223
e 79 226
e 79 227
e 79 232
e 79 239
e 79 246
e 79 249
e 79 254
e 79 255
e 79 256
e 79 263
e 79 267
e 79 270
e 79 271
e 80 146
e 80 151
e 80 153
e 80 158
e 80 160
e 80 162
e 80 167
e 80 169
e 80 175
e 80 178
e 80 180
e 80 182
e 80 184
e 80 185
e 80 186
e 80 191
e 80 196
e 80 198
e 80 202
e 80 205
e 80 206
e 80 207
e 80 210
e 80 214
e 80 215
e 80 218
e 80 219
e 80 221
e 80 227
e 80 232
e 80 233
e 80 234
e 80 235
e 80 245
e 80 249
e 80 253
e 80 262
e 80 263
e 80 266
e 80 267
e 80 269
e 80 272
e 80 273
e 81 143
e 81 148
e 81 154
e 81 161
e 81 162
e 81 163
e 81 164
e 81 169
e 81 172
e 81 176
e 81 180
e 81 182
e 81 187
e 81 190
e 81 193
e 81 199
e 81 201
e 81 203
e 81 206
e 81 208
e 81 209
e 81 210
e 81 211
e 81 214
e 81 229
e 81 231
e 81 239
e 81 243
e 81 245
e 81 250
e 81 251
e 81 253
e 81 255
e 81 258
e 81 259
e 81 260
e 81 272
e 81 273
e 82 159
e 82 163
e 82 169
e 82 170
e 82 171
e 82 173
e 82 176
e 82 177
e 82 185
e 82 186
e 82 187
e 82 188
e 82 192
e 82 203
e 82 216
e 82 217
e 82 219
e 82 220
e 82 222
e 82 224
e 82 226
e 82 236
e 82 238
e 82 241
e 82 246
e 82 251
e 82 252
e 82 254
e 82 255
e 82 257
e 82 259
e 82 261
e 82 266
e 82 267
e 82 274
e 83 144
e 83 146
e 83 148
e 83 150
e 83 157
e 83 161
e 83 163
e 83 167
e 83 171
e 83 172
e 83 183
e 83 189
e 83 199
e 83 204
e 83 211
e 83 217
e 83 218
e 83 224
e 83 226
e 83 228
e 83 231
e 83 234
e 83 241
e 83 242
e 83 244
e 83 245
e 83 247
e 83 249
e 83 250
e 83 254
e 83 260
e 83 266
e 83 272
e 84 144
e 84 145
e 84 146
e 84 147
e 84 150
e 84 156
e 84 160
e 84 161
e 84 162
e 84 167
e 84 168
e 84 169
e 84 171
e 84 172
e 84 173
e 84 176
e 84 177
e 84 184
e 84 188
e 84 189
e 84 193
e 84 200
e 84 204
e 84 205
e 84 206
e 84 212
e 84 215
e 84 223
e 84 231
e 84 232
e 84 233
e 84 234
e 84 245
e 84 247
e 84 250
e 84 255
e 84 258
e 84 259
e 84 261
e 84 262
e 84 263
e 84 265
e 84 266
e 84 267
e 84 268
e 84 271
e 85 143
e 85 146
e 85 149
e 85 150
e 85 151
e 85 153
e 85 158
e 85 162
e 85 166
e 85 167
e 85 171
e 85 172
e 85 173
e 85 177
e 85 180
e 85 183
e 85 185
e 85 191
e 85 194
e 85 197
e 85 205
e 85 206
e 85 208
e 85 212
e 85 214
e 85 216
e 85 218
e 85 220
e 85 225
e 85 227
e 85 229
e 85 230
e 85 231
e 85 233
e 85 234
e 85 235
e 85 236
e 85 237
e 85 240
e 85 243
e 85 246
e 85 247
e 85 248
e 85 249
e 85 253
e 85 262
e 85 265
e 85 266
e 85 270
e 86 150
e 86 166
e 86 168
e 86 169
e 86 172
e 86 174
e 86 175
e 86 176
e 86 182
e 86 184
e 86 188
e 86 190
e 86 193
e 86 195
e 86 199
e 86 203
e 86 207
e 86 209
e 86 218
e 86 222
e 86 230
e 86 236
e 86 251
e 86 259
e 86 260
e 86 264
e 86 270
e 87 144
e 87 147
e 87 150
e 87 155
e 87 157
e 87 163
e 87 177
e 87 180
e 87 181
e 87 182
e 87 183
e 87 188
e 87 190
e 87 195
e 87 196
e 87 198
e 87 209
e 87 210
e 87 212
e 87 215
e 87 216
e 87 217
e 87 222
e 87 223
e 87 226
e 87 230
e 87 235
e 87 237
e 87 240
e 87 242
e 87 251
e 87 255
e 87 258
e 87 267
e 87 269
e 87 271
e 87 274
e 88 147
e 88 148
e 88 149
e 88 151
e 88 157
e 88 159
e 88 161
e 88 163
e 88 173
e 88 174
e 88 183
e 88 184
e 88 185
e 88 186
e 88 189
e 88 191
e 88 198
e 88 201
e 88 204
e 88 207
e 88 216
e 88 220
e 88 223
e 88 226
e 88 234
e 88 237
e 88 248
e 88 250
e 88 255
e 88 258
e 88 269
e 88 270
e 88 271
e 88 272
e 89 144
e 89 145
e 89 148
e 89 151
e 89 152
e 89 154
e 89 169
e 89 171
e 89 173
e 89 176
e 89 178
e 89 180
e 89 182
e 89 185
e 89 198
e 89 200
e 89 204
e 89 207
e 89 213
e 89 214
e 89 216
e 89 220
e 89 221
e 89 222
e 89 237
e 89 240
e 89 242
e 89 243
e 89 248
e 89 251
e 89 252
e 89 256
e 89 257
e 89 261
e 89 271
e 89 273
e 89 274
e 90 149
e 90 151
e 90 153
e 90 154
e 90 158
e 90 161
e 90 162
e 90 164
e 90 165
e 90 166
e 90 167
e 90 174
e 90 181
e 90 186
e 90 189
e 90 190
e 90 192
e 90 198
e 90 203
e 90 211
e 90 215
e 90 220
e 90 221
e 90 224
e 90 232
e 90 233
e 90 234
e 90 235
e 90 241
e 90 242
e 90 246
e 90 247
e 90 249
e 90 252
e 90 253
e 90 254
e 90 255
e 90 256
e 90 258
e 90 260
e 90 262
e 90 263
e 90 264
e 90 268
e 90 269
e 90 271
e 90 274
e 91 145
e 91 146
e 91 151
e 91 157
e 91 168
e 91 172
e 91 173
e 91 174
e 91 177
e 91 180
e 91 189
e 91 193
e 91 194
e 91 196
e 91 198
e 91 206
e 91 209
e 91 210
e 91 214
e 91 215
e 91 219
e 91 220
e 91 224
e 91 225
e 91 228
e 91 229
e 91 239
e 91 244
e 91 246
e 91 258
e 91 261
e 91 262
e 91 265
e 92 145
e 92 147
e 92 149
e 92 154
e 92 155
e 92 160
e 92 162
e 92 163
e 92 167
e 92 171
e 92 174
e 92 179
e 92 180
e 92 182
e 92 190
e 92 193
e 92 194
e 92 200
e 92 201
e 92 202
e 92 211
e 92 214
e 92 225
e 92 227
e 92 239
e 92 243
e 92 244
e 92 249
e 92 253
e 92 258
e 92 259
e 92 264
e 92 268
e 93 143
e 93 147
e 93 149
e 93 151
e 93 154
e 93 156
e 93 158
e 93 163
e 93 166
e 93 168
e 93 170
e 93 172
e 93 176
e 93 178
e 93 184
e 93 185
e 93 186
e 93 187
e 93 188
e 93 189
e 93 200
e 93 202
e 93 213
e 93 219
e 93 223
e 93 224
e 93 227
e 93 230
e 93 232
e 93 233
e 93 238
e 93 241
e 93 244
e 93 246
e 93 248
e 93 251
e 93 252
e 93 261
e 94 144
e 94 145
e 94 147
e 94 153
e 94 155
e 94 157
e 94 161
e 94 163
e 94 164
e 94 166
e 94 167
e 94 168
e 94 175
e 94 182
e 94 183
e 94 184
e 94 191
e 94 192
e 94 209
e 94 210
e 94 218
e 94 219
e 94 220
e 94 224
e 94 225
e 94 227
e 94 229
e 94 231
e 94 240
e 94 245
e 94 247
e 94 250
e 94 252
e 94 253
e 94 256
e 94 268
e 95 149
e 95 152
e 95 155
e 95 160
e 95 171
e 95 173
e 95 177
e 95 179
e 95 180
e 95 187
e 95 194
e 95 196
e 95 205
e 95 206
e 95 207
e 95 214
e 95 218
e 95 222
e 95 224
e 95 227
e 95 228
e 95 229
e 95 230
e 95 231
e 95 239
e 95 247
e 95 248
e 95 250
e 95 252
e 95 261
e 95 267
e 95 268
e 95 269
e 95 270
e 95 272
e 95 273
e 95 274
e 96 144
e 96 146
e 96 147
e 96 148
e 96 154
e 96 165
e 96 169
e 96 171
e 96 172
e 96 173
e 96 175
e 96 176
e 96 187
e 96 189
e 96 191
e 96 192
e 96 194
e 96 195
e 96 197
e 96 201
e 96 202
e 96 203
e 96 205
e 96 209
e 96 210
e 96 212
e 96 217
e 96 223
e 96 224
e 96 225
e 96 230
e 96 236
e 96 238
e 96 239
e 96 249
e 96 251
e 96 253
e 96 257
e 96 260
e 96 261
e 96 262
e 96 264
e 96 265
e 96 270
e 96 272
e 96 273
e 96 274
e 97 146
e 97 148
e 97 156
e 97 159
e 97 160
e 97 169
e 97 183
e 97 184
e 97 187
e 97 188
e 97 196
e 97 202
e 97 207
e 97 210
e 97 211
e 97 214
e 97 215
e 97 217
e 97 219
e 97 221
e 97 222
e 97 229
e 97 231
e 97 237
e 97 238
e 97 240
e 97 241
e 97 246
e 97 259
e 97 268
e 97 272
e 97 273
e 98 158
e 98 159
e 98 160
e 98 164
e 98 166
e 98 170
e 98 174
e 98 176
e 98 182
e 98 184
e 98 188
e 98 194
e 98 203
e 98 204
e 98 206
e 98 208
e 98 209
e 98 213
e 98 214
e 98 216
e 98 223
e 98 225
e 98 227
e 98 232
e 98 235
e 98 237
e 98 242
e 98 248
e 98 252
e 98 253
e 98 254
e 98 257
e 98 260
e 98 262
e 98 265
e 98 266
e 98 267
e 98 268
e 98 269
e 98 271
e 98 272
e 99 144
e 99 152
e 99 154
e 99 156
e 99 160
e 99 162
e 99 164
e 99 165
e 99 170
e 99 178
e 99 179
e 99 181
e 99 183
e 99 186
e 99 191
e 99 194
e 99 197
e 99 201
e 99 216
e 99 217
e 99 218
e 99 223
e 99 224
e 99 226
e 99 232
e 99 233
e 99 239
e 99 241
e 99 243
e 99 252
e 99 254
e 99 256
e 99 257
e 99 268
e 99 270
e 99 274
e 100 153
e 100 154
e 100 155
e 100 157
e 100 164
e 100 174
e 100 178
e 100 181
e 100 186
e 100 189
e 100 190
e 100 192
e 100 193
e 100 195
e 100 207
e 100 220
e 100 229
e 100 230
e 100 234
e 100 242
e 100 243
e 100 253
e 100 255
e 100 256
e 100 258
e 100 259
e 100 260
e 100 263
e 100 264
e 100 267
e 100 268
e 100 270
e 101 143
e 101 144
e 101 148
e 101 153
e 101 156
e 101 158
e 101 162
e 101 168
e 101 169
e 101 172
e 101 179
e 101 180
e 101 183
e 101 184
e 101 186
e 101 188
e 101 192
e 101 198
e 101 199
e 101 207
e 101 215
e 101 216
e 101 222
e 101 223
e 101 226
e 101 228
e 101 240
e 101 241
e 101 242
e 101 243
e 101 244
e 101 245
e 101 251
e 101 252
e 101 262
e 101 267
e 101 268
e 101 270
e 101 272
e 102 145
e 102 148
e 102 152
e 102 154
e 102 157
e 102 158
e 102 165
e 102 166
e 102 167
e 102 174
e 102 181
e 102 185
e 102 186
e 102 194
e 102 200
e 102 201
e 102 203
e 102 206
e 102 207
e 102 208
e 102 211
e 102 217
e 102 222
e 102 223
e 102 224
e 102 227
e 102 228
e 102 229
e 102 232
e 102 244
e 102 246
e 102 251
e 102 252
e 102 255
e 102 261
e 102 266
e 102 269
e 102 271
e 102 274
e 103 143
e 103 146
e 103 150
e 103 162
e 103 165
e 103 166
e 103 167
e 103 168
e 103 169
e 103 174
e 103 175
e 103 178
e 103 179
e 103 180
e 103 185
e 103 186
e 103 191
e 103 192
e 103 195
e 103 197
e 103 199
e 103 203
e 103 206
e 103 211
e 103 212
e 103 217
e 103 221
e 103 222
e 103 226
e 103 228
e 103 229
e 103 233
e 103 236
e 103 237
e 103 239
e 103 240
e 103 248
e 103 249
e 103 263
e 103 264
e 103 265
e 103 266
e 103 271
e 104 144
e 104 146
e 104 149
e 104 152
e 104 153
e 104 155
e 104 158
e 104 160
e 104 164
e 104 167
e 104 171
e 104 172
e 104 185
e 104 186
e 104 189
e 104 193
e 104 203
e 104 210
e 104 211
e 104 212
e 104 213
e 104 218
e 104 221
e 104 224
e 104 226
e 104 234
e 104 235
e 104 236
e 104 237
e 104 239
e 104 240
e 104 242
e 104 243
e 104 246
e 104 247
e 104 248
e 104 250
e 104 251
e 104 254
e 104 267
e 104 270
e 105 144
e 105 151
e 105 153
e 105 158
e 105 163
e 105 165
e 105 166
e 105 175
e 105 178
e 105 182
e 105 183
e 105 184
e 105 191
e 105 195
e 105 198
e 105 200
e 105 202
e 105 204
e 105 208
e 105 213
e 105 216
e 105 217
e 105 221
e 105 223
e 105 224
e 105 228
e 105 232
e 105 234
e 105 237
e 105 239
e 105 242
e 105 244
e 105 250
e 105 252
e 105 257
e 105 258
e 105 259
e 105 262
e 105 266
e 105 268
e 106 144
e 106 149
e 106 153
e 106 155
e 106 164
e 106 166
e 106 170
e 106 171
e 106 176
e 106 181
e 106 193
e 106 196
e 106 198
e 106 207
e 106 208
e 106 219
e 106 221
e 106 222
e 106 224
e 106 226
e 106 229
e 106 231
e 106 232
e 106 233
e 106 234
e 106 238
e 106 240
e 106 244
e 106 246
e 106 247
e 106 248
e 106 251
e 106 256
e 106 259
e 106 260
e 106 262
e 106 263
e 106 265
e 106 266
e 106 271
e 106 272
e 106 274
e 107 144
e 107 147
e 107 150
e 107 156
e 107 158
e 107 161
e 107 164
e 107 173
e 107 180
e 107 182
e 107 186
e 107 190
e 107 191
e 107 194
e 107 197
e 107 200
e 107 206
e 107 210
e 107 213
e 107 215
e 107 218
e 107 222
e 107 225
e 107 230
e 107 237
e 107 239
e 107 241
e 107 243
e 107 248
e 107 259
e 107 262
e 107 265
e 108 152
e 108 153
e 108 154
e 108 155
e 108 158
e 108 159
e 108 163
e 108 166
e 108 170
e 108 172
e 108 173
e 108 177
e 108 179
e 108 192
e 108 195
e 108 198
e 108 199
e 108 201
e 108 209
e 108 211
e 108 217
e 108 218
e 108 222
e 108 228
e 108 230
e 108 233
e 108 236
e 108 237
e 108 243
e 108 246
e 108 247
e 108 248
e 108 251
e 108 254
e 108 257
e 108 260
e 108 263
e 108 268
e 108 272
e 109 146
e 109 147
e 109 150
e 109 152
e 109 153
e 109 156
e 109 159
e 109 170
e 109 171
e 109 175
e 109 179
e 109 181
e 109 183
e 109 189
e 109 192
e 109 195
e 109 196
e 109 197
e 109 208
e 109 211
e 109 220
e 109 228
e 109 229
e 109 233
e 109 235
e 109 242
e 109 243
e 109 246
e 109 249
e 109 253
e 109 254
e 109 256
e 109 261
e 109 265
e 109 269
e 109 272
e 110 143
e 110 148
e 110 155
e 110 157
e 110 158
e 110 162
e 110 167
e 110 169
e 110 173
e 110 181
e 110 186
e 110 190
e 110 191
e 110 197
e 110 200
e 110 201
e 110 203
e 110 204
e 110 205
e 110 209
e 110 214
e 110 220
e 110 223
e 110 225
e 110 228
e 110 229
e 110 230
e 110 232
e 110 234
e 110 236
e 110 249
e 110 255
e 110 257
e 110 260
e 110 272
e 110 273
e 110 274
e 111 150
e 111 156
e 111 160
e 111 164
e 111 169
e 111 170
e 111 173
e 111 174
e 111 175
e 111 180
e 111 181
e 111 186
e 111 191
e 111 194
e 111 197
e 111 198
e 111 201
e 111 204
e 111 205
e 111 207
e 111 211
e 111 218
e 111 220
e 111 223
e 111 228
e 111 230
e 111 231
e 111 232
e 111 235
e 111 245
e 111 246
e 111 247
e 111 256
e 111 260
e 111 261
e 111 264
e 111 265
e 111 266
e 111 269
e 111 270
e 112 143
e 112 147
e 112 148
e 112 150
e 112 155
e 112 158
e 112 159
e 112 165
e 112 167
e 112 172
e 112 176
e 112 177
e 112 181
e 112 184
e 112 185
e 112 186
e 112 191
e 112 192
e 112 202
e 112 205
e 112 210
e 112 214
e 112 216
e 112 225
e 112 234
e 112 235
e 112 236
e 112 239
e 112 240
e 112 242
e 112 247
e 112 248
e 112 250
e 112 253
e 112 255
e 112 264
e 112 269
e 113 145
e 113 151
e 113 152
e 113 153
e 113 161
e 113 163
e 113 164
e 113 167
e 113 173
e 113 174
e 113 175
e 113 177
e 113 179
e 113 180
e 113 186
e 113 188
e 113 190
e 113 191
e 113 193
e 113 194
e 113 200
e 113 201
e 113 203
e 113 206
e 113 207
e 113 208
e 113 213
e 113 215
e 113 216
e 113 219
e 113 227
e 113 228
e 113 229
e 113 231
e 113 234
e 113 235
e 113 237
e 113 238
e 113 241
e 113 242
e 113 245
e 113 250
e 113 251
e 113 253
e 113 258
e 113 261
e 113 264
e 113 265
e 113 268
e 113 273
e 113 274
e 114 148
e 114 149
e 114 150
e 114 152
e 114 156
e 114 160
e 114 168
e 114 170
e 114 176
e 114 178
e 114 182
e 114 184
e 114 185
e 114 192
e 114 193
e 114 197
e 114 200
e 114 202
e 114 203
e 114 215
e 114 219
e 114 221
e 114 223
e 114 234
e 114 238
e 114 241
e 114 244
e 114 245
e 114 247
e 114 249
e 114 250
e 114 256
e 114 257
e 114 261
e 114 263
e 114 266
e 114 267
e 114 271
e 115 144
e 115 146
e 115 150
e 115 151
e 115 154
e 115 156
e 115 158
e 115 159
e 115 160
e 115 161
e 115 166
e 115 167
e 115 168
e 115 169
e 115 173
e 115 178
e 115 184
e 115 185
e 115 189
e 115 192
e 115 195
e 115 196
e 115 199
e 115 200
e 115 205
e 115 206
e 115 207
e 115 210
e 115 212
e 115 216
e 115 226
e 115 227
e 115 229
e 115 238
e 115 242
e 115 245
e 115 246
e 115 256
e 115 257
e 115 258
e 115 259
e 115 267
e 115 269
e 115 274
e 116 143
e 116 145
e 116 151
e 116 152
e 116 158
e 116 159
e 116 160
e 116 164
e 116 165
e 116 177
e 116 179
e 116 180
e 116 185
e 116 188
e 116 191
e 116 192
e 116 195
e 116 197
e 116 203
e 116 205
e 116 207
e 116 209
e 116 213
e 116 215
e 116 217
e 116 222
e 116 225
e 116 227
e 116 229
e 116 231
e 116 238
e 116 239
e 116 240
e 116 241
e 116 242
e 116 244
e 116 246
e 116 251
e 116 252
e 116 258
e 116 260
e 116 269
e 116 274
e 117 143
e 117 144
e 117 149
e 117 150
e 117 152
e 117 157
e 117 160
e 117 164
e 117 166
e 117 171
e 117 173
e 117 174
e 117 175
e 117 178
e 117 179
e 117 182
e 117 188
e 117 191
e 117 195
e 117 198
e 117 201
e 117 205
e 117 206
e 117 213
e 117 214
e 117 215
e 117 219
e 117 221
e 117 225
e 117 226
e 117 227
e 117 230
e 117 233
e 117 236
e 117 241
e 117 252
e 117 253
e 117 262
e 117 264
e 117 269
e 117 274
e 118 143
e 118 145
e 118 147
e 118 150
e 118 151
e 118 158
e 118 162
e 118 170
e 118 171
e 118 173
e 118 175
e 118 183
e 118 185
e 118 189
e 118 196
e 118 199
e 118 202
e 118 205
e 118 206
e 118 208
e 118 210
e 118 211
e 118 212
e 118 225
e 118 227
e 118 231
e 118 232
e 118 236
e 118 239
e 118 242
e 118 243
e 118 248
e 118 250
e 118 254
e 118 260
e 118 268
e 118 274
e 119 145
e 119 146
e 119 151
e 119 152
e 119 153
e 119 155
e 119 158
e 119 161
e 119 165
e 119 167
e 119 179
e 119 187
e 119 196
e 119 197
e 119 204
e 119 205
e 119 212
e 119 213
e 119 218
e 119 223
e 119 224
e 119 226
e 119 227
e 119 233
e 119 238
e 119 240
e 119 244
e 119 249
e 119 255
e 119 258
e 119 263
e 119 267
e 119 270
e 119 272
e 119 273
e 120 145
e 120 147
e 120 149
e 120 151
e 120 157
e 120 168
e 120 171
e 120 172
e 120 174
e 120 179
e 120 182
e 120 187
e 120 188
e 120 196
e 120 201
e 120 206
e 120 207
e 120 213
e 120 215
e 120 219
e 120 224
e 120 225
e 120 226
e 120 233
e 120 235
e 120 238
e 120 251
e 120 254
e 120 259
e 120 262
e 120 264
e 120 265
e 120 271
e 121 145
e 121 147
e 121 148
e 121 149
e 121 156
e 121 161
e 121 164
e 121 166
e 121 168
e 121 175
e 121 177
e 121 180
e 121 181
e 121 184
e 121 188
e 121 192
e 121 194
e 121 195
e 121 202
e 121 204
e 121 205
e 121 208
e 121 217
e 121 218
e 121 222
e 121 223
e 121 224
e 121 225
e 121 226
e 121 230
e 121 231
e 121 237
e 121 238
e 121 248
e 121 255
e 121 258
e 121 261
e 121 263
e 121 272
e 121 273
e 122 143
e 122 148
e 122 150
e 122 151
e 122 154
e 122 156
e 122 158
e 122 159
e 122 160
e 122 170
e 122 177
e 122 178
e 122 179
e 122 188
e 122 190
e 122 192
e 122 193
e 122 195
e 122 198
e 122 201
e 122 204
e 122 208
e 122 209
e 122 212
e 122 214
e 122 220
e 122 222
e 122 227
e 122 228
e 122 236
e 122 238
e 122 241
e 122 245
e 122 251
e 122 255
e 122 256
e 122 263
e 122 268
e 122 270
e 123 145
e 123 159
e 123 161
e 123 172
e 123 174
e 123 179
e 123 185
e 123 186
e 123 187
e 123 189
e 123 190
e 123 196
e 123 199
e 123 202
e 123 209
e 123 213
e 123 216
e 123 221
e 123 223
e 123 225
e 123 230
e 123 233
e 123 237
e 123 244
e 123 247
e 123 255
e 123 257
e 123 260
e 123 263
e 123 264
e 123 267
e 123 270
e 123 272
e 124 145
e 124 149
e 124 150
e 124 159
e 124 165
e 124 170
e 124 172
e 124 173
e 124 182
e 124 190
e 124 193
e 124 194
e 124 197
e 124 199
e 124 200
e 124 208
e 124 213
e 124 215
e 124 216
e 124 218
e 124 232
e 124 240
e 124 245
e 124 249
e 124 252
e 124 258
e 124 262
e 124 264
e 124 266
e 125 144
e 125 146
e 125 149
e 125 151
e 125 154
e 125 155
e 125 162
e 125 170
e 125 175
e 125 187
e 125 189
e 125 190
e 125 191
e 125 193
e 125 196
e 125 199
e 125 201
e 125 204
e 125 210
e 125 212
e 125 214
e 125 218
e 125 224
e 125 225
e 125 226
e 125 230
e 125 231
e 125 233
e 125 239
e 125 241
e 125 244
e 125 245
e 125 248
e 125 254
e 125 258
e 125 259
e 125 261
e 125 265
e 125 267
e 125 271
e 125 273
e 126 143
e 126 150
e 126 154
e 126 155
e 126 156
e 126 161
e 126 164
e 126 167
e 126 168
e 126 177
e 126 178
e 126 181
e 126 182
e 126 201
e 126 203
e 126 209
e 126 213
e 126 217
e 126 219
e 126 222
e 126 229
e 126 232
e 126 239
e 126 240
e 126 250
e 126 256
e 126 259
e 126 270
e 126 273
e 127 143
e 127 144
e 127 145
e 127 147
e 127 149
e 127 150
e 127 152
e 127 153
e 127 154
e 127 155
e 127 156
e 127 157
e 127 162
e 127 165
e 127 168
e 127 169
e 127 172
e 127 173
e 127 175
e 127 181
e 127 187
e 127 189
e 127 192
e 127 203
e 127 209
e 127 213
e 127 215
e 127 217
e 127 219
e 127 225
e 127 232
e 127 233
e 127 235
e 127 240
e 127 241
e 127 244
e 127 245
e 127 248
e 127 252
e 127 257
e 127 258
e 127 262
e 127 272
e 127 274
e 128 156
e 128 158
e 128 160
e 128 163
e 128 164
e 128 175
e 128 176
e 128 186
e 128 189
e 128 190
e 128 198
e 128 201
e 128 206
e 128 212
e 128 216
e 128 221
e 128 225
e 128 229
e 128 230
e 128 235
e 128 237
e 128 241
e 128 243
e 128 244
e 128 253
e 128 255
e 128 256
e 128 257
e 128 264
e 128 265
e 128 270
e 128 273
e 129 149
e 129 154
e 129 155
e 129 156
e 129 157
e 129 160
e 129 161
e 129 168
e 129 169
e 129 170
e 129 175
e 129 183
e 129 187
e 129 194
e 129 196
e 129 198
e 129 199
e 129 200
e 129 202
e 129 204
e 129 211
e 129 216
e 129 218
e 129 219
e 129 221
e 129 225
e 129 228
e 129 234
e 129 237
e 129 238
e 129 245
e 129 248
e 129 249
e 129 251
e 129 253
e 129 254
e 129 257
e 129 258
e 129 261
e 129 266
e 129 271
e 129 272
e 129 273
e 130 149
e 130 150
e 130 152
e 130 161
e 130 162
e 130 163
e 130 164
e 130 172
e 130 181
e 130 183
e 130 184
e 130 185
e 130 187
e 130 190
e 130 193
e 130 195
e 130 197
e 130 200
e 130 201
e 130 204
e 130 207
e 130 208
e 130 212
e 130 213
e 130 215
e 130 218
e 130 219
e 130 220
e 130 221
e 130 222
e 130 226
e 130 228
e 130 229
e 130 231
e 130 233
e 130 236
e 130 242
e 130 243
e 130 250
e 130 257
e 130 258
e 130 259
e 130 260
e 130 261
e 130 264
e 130 266
e 130 269
e 130 274
e 131 144
e 131 145
e 131 146
e 131 147
e 131 152
e 131 153
e 131 156
e 131 161
e 131 162
e 131 166
e 131 167
e 131 169
e 131 174
e 131 177
e 131 178
e 131 179
e 131 188
e 131 191
e 131 193
e 131 200
e 131 201
e 131 207
e 131 208
e 131 213
e 131 214
e 131 218
e 131 220
e 131 222
e 131 223
e 131 227
e 131 230
e 131 236
e 131 237
e 131 242
e 131 243
e 131 247
e 131 250
e 131 253
e 131 259
e 131 261
e 131 262
e 131 263
e 131 265
e 131 266
e 132 149
e 132 153
e 132 159
e 132 163
e 132 165
e 132 168
e 132 171
e 132 173
e 132 175
e 132 183
e 132 184
e 132 187
e 132 188
e 132 193
e 132 194
e 132 196
e 132 199
e 132 200
e 132 201
e 132 205
e 132 209
e 132 211
e 132 217
e 132 219
e 132 221
e 132 222
e 132 232
e 132 242
e 132 245
e 132 246
e 132 247
e 132 253
e 132 254
e 132 256
e 132 262
e 133 145
e 133 149
e 133 154
e 133 159
e 133 165
e 133 169
e 133 175
e 133 178
e 133 179
e 133 183
e 133 193
e 133 194
e 133 199
e 133 204
e 133 211
e 133 212
e 133 214
e 133 216
e 133 220
e 133 226
e 133 231
e 133 241
e 133 244
e 133 246
e 133 248
e 133 250
e 133 253
e 133 254
e 133 257
e 133 259
e 133 265
e 133 267
e 133 269
e 134 147
e 134 152
e 134 153
e 134 160
e 134 161
e 134 165
e 134 166
e 134 170
e 134 175
e 134 177
e 134 179
e 134 182
e 134 183
e 134 185
e 134 190
e 134 192
e 134 198
e 134 199
e 134 200
e 134 202
e 134 204
e 134 210
e 134 214
e 134 219
e 134 231
e 134 234
e 134 238
e 134 242
e 134 247
e 134 249
e 134 264
e 134 265
e 134 267
e 134 271
e 135 146
e 135 148
e 135 157
e 135 161
e 135 168
e 135 185
e 135 186
e 135 195
e 135 197
e 135 199
e 135 203
e 135 205
e 135 210
e 135 211
e 135 214
e 135 215
e 135 217
e 135 221
e 135 223
e 135 225
e 135 230
e 135 231
e 135 233
e 135 236
e 135 237
e 135 238
e 135 240
e 135 244
e 135 245
e 135 251
e 135 253
e 135 256
e 135 258
e 135 259
e 135 260
e 135 264
e 135 265
e 135 269
e 135 270
e 135 273
e 136 144
e 136 145
e 136 147
e 136 148
e 136 152
e 136 155
e 136 159
e 136 163
e 136 165
e 136 170
e 136 180
e 136 184
e 136 198
e 136 202
e 136 203
e 136 206
e 136 209
e 136 211
e 136 212
e 136 216
e 136 225
e 136 228
e 136 233
e 136 234
e 136 235
e 136 236
e 136 237
e 136 239
e 136 240
e 136 244
e 136 245
e 136 246
e 136 247
e 136 249
e 136 250
e 136 254
e 136 257
e 136 260
e 136 263
e 136 269
e 136 271
e 137 143
e 137 145
e 137 148
e 137 152
e 137 153
e 137 157
e 137 160
e 137 161
e 137 163
e 137 165
e 137 167
e 137 176
e 137 177
e 137 181
e 137 183
e 137 187
e 137 188
e 137 190
e 137 192
e 137 193
e 137 194
e 137 197
e 137 200
e 137 203
e 137 204
e 137 209
e 137 211
e 137 217
e 137 219
e 137 220
e 137 223
e 137 230
e 137 231
e 137 234
e 137 236
e 137 239
e 137 244
e 137 245
e 137 254
e 137 256
e 137 258
e 137 259
e 137 260
e 137 263
e 137 266
e 137 268
e 137 270
e 137 274
e 138 143
e 138 145
e 138 147
e 138 151
e 138 156
e 138 159
e 138 162
e 138 169
e 138 170
e 138 174
e 138 176
e 138 178
e 138 181
e 138 187
e 138 188
e 138 195
e 138 198
e 138 199
e 138 201
e 138 208
e 138 209
e 138 210
e 138 211
e 138 214
e 138 215
e 138 219
e 138 220
e 138 221
e 138 228
e 138 229
e 138 237
e 138 238
e 138 243
e 138 247
e 138 250
e 138 254
e 138 255
e 138 261
e 138 263
e 138 266
e 138 269
e 138 271
e 138 273
e 139 143
e 139 144
e 139 146
e 139 150
e 139 152
e 139 153
e 139 154
e 139 156
e 139 157
e 139 164
e 139 167
e 139 171
e 139 172
e 139 174
e 139 176
e 139 189
e 139 196
e 139 198
e 139 199
e 139 200
e 139 202
e 139 203
e 139 204
e 139 206
e 139 207
e 139 208
e 139 209
e 139 236
e 139 239
e 139 241
e 139 242
e 139 247
e 139 248
e 139 251
e 139 252
e 139 254
e 139 264
e 139 268
e 139 274
e 140 146
e 140 157
e 140 160
e 140 163
e 140 165
e 140 169
e 140 176
e 140 183
e 140 184
e 140 186
e 140 187
e 140 188
e 140 189
e 140 194
e 140 195
e 140 196
e 140 199
e 140 202
e 140 205
e 140 209
e 140 210
e 140 216
e 140 217
e 140 219
e 140 221
e 140 227
e 140 228
e 140 230
e 140 231
e 140 235
e 140 237
e 140 238
e 140 240
e 140 242
e 140 245
e 140 246
e 140 249
e 140 253
e 140 260
e 140 261
e 140 267
e 140 268
e 140 270
e 141 147
e 141 162
e 141 164
e 141 166
e 141 173
e 141 178
e 141 180
e 141 182
e 141 189
e 141 191
e 141 195
e 141 197
e 141 200
e 141 202
e 141 204
e 141 205
e 141 207
e 141 208
e 141 212
e 141 214
e 141 215
e 141 220
e 141 224
e 141 240
e 141 243
e 141 246
e 141 248
e 141 249
e 141 262
e 141 263
e 141 266
e 141 268
e 142 148
e 142 155
e 142 163
e 142 165
e 142 171
e 142 174
e 142 176
e 142 180
e 142 182
e 142 183
e 142 185
e 142 190
e 142 193
e 142 195
e 142 196
e 142 206
e 142 218
e 142 220
e 142 224
e 142 226
e 142 234
e 142 235
e 142 238
e 142 240
e 142 243
e 142 247
e 142 251
e 142 252
e 142 256
e 142 257
e 142 259
e 142 262
e 142 263
e 142 264
e 142 267
e 142 273
